c A SAT instance generated from a 3-CNF formula that had 33 clauses and 11 variables
p cnf 11 33
4 5 -9 0
-7 8 -11 0
9 6 -10 0
-5 4 10 0
11 2 7 0
-4 -2 -11 0
-10 8 -11 0
-5 6 -4 0
-3 10 4 0
-11 -1 -9 0
3 -7 1 0
-8 10 -3 0
-2 4 -3 0
4 9 6 0
-11 -3 -7 0
-10 -8 3 0
-4 -1 5 0
-11 1 2 0
-3 -11 2 0
-10 -11 -4 0
-6 -8 -10 0
-2 -6 9 0
1 3 -2 0
4 1 10 0
1 -10 6 0
-8 7 1 0
-6 -5 7 0
-6 2 -9 0
-9 -6 -8 0
-7 8 6 0
11 -7 -3 0
11 9 3 0
6 5 -4 0
